&CONTROL
  prefix      = 'cu',
  calculation = 'nscf',
  pseudo_dir  = './pseudo/',
  outdir      = './tmp/',
/
&SYSTEM
  ibrav = 0
  A =    2.56062
  nat = 1
  ntyp = 1
  occupations      = 'smearing'
  degauss          = 0.01
  smearing         = 'gauss'
/
&ELECTRONS
  conv_thr = 1.0d-8
/
&IONS
/
CELL_PARAMETERS {alat}
  1.000000000000000   0.000000000000000   0.000000000000000 
  0.500000000000000   0.866025403784439   0.000000000000000 
  0.500000000000000   0.288675134594813   0.816496580927726 
ATOMIC_SPECIES
  Cu   63.54600  Cu.pbe-dn-kjpaw_psl.1.0.0.UPF
ATOMIC_POSITIONS {crystal}
Cu   0.000000000000000   0.000000000000000   0.000000000000000 
K_POINTS {automatic}
  16 16 16 0 0 0
