&CONTROL
  prefix      = 'cu',
  calculation = 'scf',
  pseudo_dir  = './pseudo/',
  outdir      = './tmp/',
/
&SYSTEM
   ntyp             = 2
   nat              = 27
   ibrav            = 0
   tot_charge=+1.0
   ecutwfc = 67
   ecutrho = 269
  occupations      = 'smearing'
  degauss          = 0.01
  smearing         = 'gauss'
/
&ELECTRONS
/
&IONS
/
&CELL
/

ATOMIC_SPECIES
  Cuh   63.54600  Cuh.UPF
  Cu   63.54600  Cu.pbe-dn-kjpaw_psl.1.0.0.UPF

K_POINTS {automatic}
  2 2 2 0 0 0

CELL_PARAMETERS angstrom
7.68185676000000 0.00000000000000 0.00000000000000
3.84092838000000 6.65268310239322 0.00000000000000
3.84092838000000 2.21756103413107 6.27220977971654

ATOMIC_POSITIONS angstrom
Cuh 0.0000000000 0.0000000000 0.0000000000 
Cu 1.2803094600 0.7391870114 2.0907365932 
Cu 2.5606189200 1.4783740228 4.1814731865 
Cu 1.2803094600 2.2175610341 0.0000000000 
Cu 2.5606189200 2.9567480455 2.0907365932 
Cu 3.8409283800 3.6959350569 4.1814731865 
Cu 2.5606189200 4.4351220683 0.0000000000 
Cu 3.8409283800 5.1743090796 2.0907365932 
Cu 5.1212378400 5.9134960910 4.1814731865 
Cu 2.5606189200 0.0000000000 0.0000000000 
Cu 3.8409283800 0.7391870114 2.0907365932 
Cu 5.1212378400 1.4783740228 4.1814731865 
Cu 3.8409283800 2.2175610341 0.0000000000 
Cu 5.1212378400 2.9567480455 2.0907365932 
Cu 6.4015473000 3.6959350569 4.1814731865 
Cu 5.1212378400 4.4351220683 0.0000000000 
Cu 6.4015473000 5.1743090796 2.0907365932 
Cu 7.6818567600 5.9134960910 4.1814731865 
Cu 5.1212378400 0.0000000000 0.0000000000 
Cu 6.4015473000 0.7391870114 2.0907365932 
Cu 7.6818567600 1.4783740228 4.1814731865 
Cu 6.4015473000 2.2175610341 0.0000000000 
Cu 7.6818567600 2.9567480455 2.0907365932 
Cu 8.9621662200 3.6959350569 4.1814731865 
Cu 7.6818567600 4.4351220683 0.0000000000 
Cu 8.9621662200 5.1743090796 2.0907365932 
Cu 10.2424756800 5.9134960910 4.1814731865 

