&projwfc
  outdir = './tmp/'
  prefix = 'cu'
  Emin = 15.0, Emax = 25.0, DeltaE = 0.1
  ngauss = 1, degauss = 0.02
/