&CONTROL
  prefix      = 'cu',
  calculation = 'scf',
  pseudo_dir  = './pseudo/',
  outdir      = './tmp/',
/
&SYSTEM
   ntyp             = 1
   nat              = 8
   ibrav            = 0
  occupations      = 'smearing'
  degauss          = 0.01
  smearing         = 'gauss'
/
&ELECTRONS
/
&IONS
/
&CELL
/

ATOMIC_SPECIES
  Cu   63.54600  Cu.pbe-dn-kjpaw_psl.1.0.0.UPF

K_POINTS {automatic}
  2 2 2 0 0 0

CELL_PARAMETERS angstrom
5.12123784000000 0.00000000000000 0.00000000000000
2.56061892000000 4.43512206826215 0.00000000000000
2.56061892000000 1.47837402275405 4.18147318647769

ATOMIC_POSITIONS angstrom
Cu 0.0000000000 0.0000000000 0.0000000000 
Cu 1.2803094600 0.7391870114 2.0907365932 
Cu 1.2803094600 2.2175610341 0.0000000000 
Cu 2.5606189200 2.9567480455 2.0907365932 
Cu 2.5606189200 0.0000000000 0.0000000000 
Cu 3.8409283800 0.7391870114 2.0907365932 
Cu 3.8409283800 2.2175610341 0.0000000000 
Cu 5.1212378400 2.9567480455 2.0907365932 

